num_offers = 25;
num_halls = 10;
start=[58,27,74,20,28,21,16,7,28,43,3,26,41,9,16,5,21,58,3,29,5,7,26,35,74];
end=[69,82,92,50,59,31,33,19,84,69,30,50,52,77,74,41,27,61,65,48,15,87,32,69,93];
price=[600,3862,1316,367,1971,750,1617,471,5071,1754,2073,826,727,3684,1860,3668,669,79,3329,223,162,7734,439,3463,1695];
requirement=[997,487,620,763,361,395,650,353,717,899,327,295,931,429,828,734,556,797,629,379,244,969,617,602,949];
capacity=[945,503,678,832,916,976,786,831,446,889];
